myproject/instances/20nodes/rnd19_20.tsp
NAME : rnd19_20.tsp
TYPE : TSP
DIMENSION : 20
EDGE_WEIGHT_TYPE : EUC_2D
NODE_COORD_SECTION
1 591 845
2 282 314
3 366 185
4 655 770
5 96 628
6 335 817
7 55 934
8 545 834
9 244 657
10 30 328
11 563 7
12 476 236
13 775 132
14 350 141
15 972 604
16 40 453
17 3 437
18 31 331
19 0 80
20 765 916
